 B 
 1.0000000000000000
   -16.0537116690349997   -0.0000000000000000   -0.0000000000000000
    -8.0216279783070004   29.9474123779939987   -0.0000000000000000
    -0.0000000000000000   -0.0000000000000000  -23.0000000000000000
 B  
 392
Cartesian
 -10.2031145889841106  0.0587030399886812 -9.1999999999999833
 -18.4153870560849171 10.7777986875975635 -13.6000000000069665
 -12.5416084083253452 10.6132101538352757 -13.6000000000069665
 -6.6678297605737900 10.4486216201029372 -13.6000000000069665
 -11.0203882601753698 10.3312155401555223 -13.6000000000069665
 -5.1466096124157943 10.1666270063932345 -13.6000000000069665
 -15.3265426336992423 10.0020384726608924 -13.6000000000069665
 -9.4527639859476871  9.8374499389285521 -13.6000000000069665
 -13.8053224855412449  9.7200438589511897 -13.6000000000069665
 -7.9315438377896905  9.5554553252188512 -13.6000000000069665
 -8.2354540348014709 10.9423872213299056 -13.6000000000069665
 -18.1114768590731394  9.3908667914865092 -13.6000000000069665
 -16.5902567108990908  9.1088721777768065 -13.6000000000069665
 -10.7164780631475356  8.9442836440444662 -13.6000000000069665
 -4.8426994154040131  8.7796951102821783 -13.6000000000069665
 -15.0226324366874593  8.6151065765498398 -13.6000000000069665
 -3.3214792672379851  8.4977004966024232 -13.6000000000069665
 -13.5014122885134107  8.3331119628401371 -13.6000000000069665
 -7.6276336407618572  8.1685234291077951 -13.6000000000069665
 -17.8075666620453035  8.0039348953754565 -13.6000000000069665
 -6.1064134926038607  7.8865288153980933 -13.6000000000069665
 -12.2376982113135622  9.2262782577242231 -13.6000000000069665
 -3.8828955352159462 11.0597933012773204 -13.6000000000069665
 -9.7566741829674992 11.2243818350096589 -13.6000000000069665
 -15.6304528307110218 11.3889703687719468 -13.6000000000069665
 -7.5795603516412378 14.6094173084361003 -13.6000000000069665
 -17.7594933729166620 14.4448287746738124 -13.6000000000069665
 -11.8857147251651103 14.2802402409414722 -13.6000000000069665
 -6.0119360774135568 14.1156517072091319 -13.6000000000069665
 -10.3644945769910599 13.9982456272317695 -13.6000000000069665
 -4.4907159292395065 13.8336570934994292 -13.6000000000069665
 -14.6706489505390074 13.6690685597670889 -13.6000000000069665
 -8.7968703027794319 13.5044800260048010 -13.6000000000069665
 -13.1494288023649588 13.3870739460573862 -13.6000000000069665
 -7.2756501546134054 13.2224854123250459 -13.6000000000069665
 -17.4555831758888296 13.0578968785627580 -13.6000000000069665
 -11.5818045281372761 12.8933083448304178 -13.6000000000069665
 -15.9343630277388542 12.7759022648830030 -13.6000000000069665
 -10.0605843799792787 12.6113137311207151 -13.6000000000069665
 -4.1868057322277270 12.4467251973883748 -13.6000000000069665
 -14.3667387535111732 12.2821366636560327 -13.6000000000069665
 -18.7192972531047310 12.1647305836786721 -13.6000000000069665
 -12.8455186053531776 12.0001420499463300 -13.6000000000069665
 -6.9717399576016241 11.8355535162139915 -13.6000000000069665
 -17.1516729788770483 11.6709649824517037 -13.6000000000069665
 -5.4505198094275737 11.5535589025042889 -13.6000000000069665
 -16.2863465138873096  7.7219402816657530 -13.6000000000069665
 -19.2807135210746594 14.7268233883835151 -13.6000000000069665
 -10.4125678661357526  7.5573517479334118 -13.6000000000069665
 -8.8913477179777569  7.2753571342237091 -13.6000000000069665
 -13.8533957746698846  3.2791499796528334 -13.6000000000069665
 -7.9796171269263638  3.1145614458905455 -13.6000000000069665
 -12.3321756265118871  2.9971553659431311 -13.6000000000069665
 -6.4583969787603355  2.8325668322107904 -13.6000000000069665
 -16.6383300000357615  2.6679782984485025 -13.6000000000069665
 -10.7645513522842080  2.5033897647161623 -13.6000000000069665
 -15.1171098518857843  2.3859836847687474 -13.6000000000069665
 -9.2433312041262106  2.2213951510064596 -13.6000000000069665
 -3.3695525563746576  2.0568066172741188 -13.6000000000069665
 -3.6734627533864384  3.4437385133851741 -13.6000000000069665
 -13.5494855776581051  1.8922180835417790 -13.6000000000069665
 -12.0282654295001077  1.6102234698320763 -13.6000000000069665
 -6.1544867817485551  1.4456349360997358 -13.6000000000069665
 -16.3344198030239802  1.2810464023374479 -13.6000000000069665
 -4.6332666335745056  1.1636403223900329 -13.6000000000069665
 -14.8131996548579519  0.9990517886576927 -13.6000000000069665
 -8.9394210070983764  0.8344632548954050 -13.6000000000069665
 -3.0656423593628777  0.6698747211630646 -13.6000000000069665
 -7.4182008589484028  0.5524686412156496 -13.6000000000069665
 -1.5444222111888279  0.3878801074533619 -13.6000000000069665
 -1.8483324082006081  1.7748120035644164 -13.6000000000069665
 -9.5472414011379900  3.6083270471175144 -13.6000000000069665
 -5.1946829015524667  3.7257331270649288 -13.6000000000069665
 -11.0684615493120404  3.8903216608272171 -13.6000000000069665
 -3.0175690702262052  7.1107686004913688 -13.6000000000069665
 -13.1975020915016277  6.9461800667290809 -13.6000000000069665
 -7.3237234437500778  6.7815915329967416 -13.6000000000069665
 -11.6762819433356011  6.6641854530493259 -13.6000000000069665
 -5.8025032955920803  6.4995969192870380 -13.6000000000069665
 -15.9824363168755283  6.3350083855546986 -13.6000000000069665
 -10.1086576691239731  6.1704198518223583 -13.6000000000069665
 -14.4612161687014780  6.0530137718449950 -13.6000000000069665
 -8.5874375209499245  5.8884252381126547 -13.6000000000069665
 -2.7136588731983711  5.7238367043803153 -13.6000000000069665
 -12.8935918944898500  5.5592481706180266 -13.6000000000069665
 -17.2461503940753751  5.4418420906706118 -13.6000000000069665
 -11.3723717463238216  5.2772535569382715 -13.6000000000069665
 -5.4985930985642479  5.1126650231759836 -13.6000000000069665
 -15.6785261198476942  4.9480764894436433 -13.6000000000069665
 -3.9773729504142721  4.8306704094962276 -13.6000000000069665
 -14.1573059716896967  4.6660818757339406 -13.6000000000069665
 -8.2835273239381451  4.5014933420016003 -13.6000000000069665
 -2.4097486761865907  4.3369048082692601 -13.6000000000069665
 -6.7623071757721167  4.2194987283218452 -13.6000000000069665
 -16.9422401970635939  4.0549101945595574 -13.6000000000069665
 -4.5387892183761798  7.3927632141711248 -13.6000000000069665
 -11.7243552324722735  0.2232915737210215 -13.6000000000069665
 -9.1007804997912132 14.8914119221158554 -13.6000000000069665
 -4.7946261262673406 15.2205889896104836 -13.6000000000069665
 -17.3130324715698869 25.7279136496721534 -13.6000000000069665
 -21.6655909711554102 25.6105075697247386 -13.6000000000069665
 -15.7918123234038568 25.4459190359924001 -13.6000000000069665
 -9.9180336756523033 25.2813305022600581 -13.6000000000069665
 -20.0979666969277275 25.1167419684977702 -13.6000000000069665
 -8.3968135274943076 24.9993358885503554 -13.6000000000069665
 -18.5767465487777557 24.8347473548180133 -13.6000000000069665
 -12.7029679010181766 24.6701588210557254 -13.6000000000069665
 -6.8291892532666258 24.5055702873233869 -13.6000000000069665
 -7.1330994502784062 25.8925021834344413 -13.6000000000069665
 -11.1817477528521501 24.3881642073759721 -13.6000000000069665
 -15.4879021263920755 24.0589871398813457 -13.6000000000069665
 -9.6141234786405221 23.8943986061490037 -13.6000000000069665
 -13.9666819782180269 23.7769925261716430 -13.6000000000069665
 -8.0929033304664735 23.6124039924393010 -13.6000000000069665
 -18.2728363517499197 23.4478154587069589 -13.6000000000069665
 -12.3990577040063990 23.2832269249446711 -13.6000000000069665
 -16.7516162035919223 23.1658208449972562 -13.6000000000069665
 -10.8778375558403706 23.0012323112649177 -13.6000000000069665
 -21.0577705771157966 22.8366437775026299 -13.6000000000069665
 -21.3616807741436290 24.2235756736136842 -13.6000000000069665
 -13.0068780980299579 26.0570907171667798 -13.6000000000069665
 -18.8806567457895333 26.2216792509290677 -13.6000000000069665
 -14.5280982462040082 26.3390853308764825 -13.6000000000069665
 -22.5309174361531710 29.5595322705406360 -13.6000000000069665
 -16.6571387883935991 29.3949437367783482 -13.6000000000069665
 -21.0096972879791224 29.2775376568309333 -13.6000000000069665
 -15.1359186402436237 29.1129491230985948 -13.6000000000069665
 -9.2621399924840482 28.9483605893363070 -13.6000000000069665
 -19.4420730137674944 28.7837720556039649 -13.6000000000069665
 -7.7409198443180189 28.6663659756565501 -13.6000000000069665
 -17.9208528655934458 28.5017774418942622 -13.6000000000069665
 -12.0470742178418924 28.3371889081619237 -13.6000000000069665
 -22.2270072391413933 28.1726003744295816 -13.6000000000069665
 -10.5258540696838949 28.0551942944522210 -13.6000000000069665
 -20.7057870909673412 27.8906057607198790 -13.6000000000069665
 -14.8320084432157877 27.7260172269875369 -13.6000000000069665
 -8.9582297954562140 27.5614286932252490 -13.6000000000069665
 -13.3107882950577938 27.4440226132778342 -13.6000000000069665
 -7.4370096473062386 27.2794340795454957 -13.6000000000069665
 -17.6169426685816646 27.1148455457832114 -13.6000000000069665
 -11.7431640208301111 26.9502570120508693 -13.6000000000069665
 -16.0957225204156344 26.8328509321034545 -13.6000000000069665
 -10.2219438726721155 26.6682623983411666 -13.6000000000069665
 -20.4018768939555599 26.5036738646088246 -13.6000000000069665
 -15.1839919293642396 22.6720552437702878 -13.6000000000069665
 -14.9745591475507851 15.0560004558781415 -13.6000000000069665
 -19.5365504289658212 22.5546491638228730 -13.6000000000069665
 -7.7889931334546922 22.2254720963282466 -13.6000000000069665
 -6.9236666684649517 18.2764473955422950 -13.6000000000069665
 -17.1035996897403741 18.1118588617800071 -13.6000000000069665
 -11.2298210419888225 17.9472703280476651 -13.6000000000069665
 -5.3560423942372699 17.7826817943153266 -13.6000000000069665
 -9.7086008938308268 17.6652757143379624 -13.6000000000069665
 -19.8885339151142730 17.5006871806056239 -13.6000000000069665
 -14.0147552673627196 17.3360986468732854 -13.6000000000069665
 -8.1409766196031459 17.1715101131109975 -13.6000000000069665
 -12.4935351192047257 17.0541040331635827 -13.6000000000069665
 -18.6248198379144227 18.3938534754897098 -13.6000000000069665
 -6.6197564714531705 16.8895154994312406 -13.6000000000069665
 -10.9259108449770430 16.5603384319366107 -13.6000000000069665
 -15.2784693445625663 16.4429323519891959 -13.6000000000069665
 -9.4046906968029909 16.2783438182269080 -13.6000000000069665
 -19.5846237181024918 16.1137552844945695 -13.6000000000069665
 -13.7108450703509384 15.9491667507622292 -13.6000000000069665
 -18.0634035699284432 15.8317606707848686 -13.6000000000069665
 -12.1896249221768898 15.6671721370525265 -13.6000000000069665
 -6.3158462744253363 15.5025836033201863 -13.6000000000069665
 -16.4957792957007605 15.3379950695578984 -13.6000000000069665
 -16.7996894927285965 16.7249269656689528 -13.6000000000069665
 -8.4448868166309801 18.5584420092220519 -13.6000000000069665
 -14.3186654643745008 18.7230305429843398 -13.6000000000069665
 -20.1924441121260543 18.8876190767166818 -13.6000000000069665
 -17.9689261547381385 22.0608835625959046 -13.6000000000069665
 -6.2677729852966966 21.9434774826185439 -13.6000000000069665
 -16.4477060065801446 21.7788889488862019 -13.6000000000069665
 -10.5739273588285911 21.6143004151538634 -13.6000000000069665
 -20.7538603801040153 21.4497118813915755 -13.6000000000069665
 -9.0527072106545390 21.3323058014441607 -13.6000000000069665
 -19.2326402319379852 21.1677172677118186 -13.6000000000069665
 -13.3588615841944645 21.0031287339495307 -13.6000000000069665
 -7.4850829364429128 20.8385402002171922 -13.6000000000069665
 -11.8376414360284379 20.7211341202697774 -13.6000000000069665
 -5.9638627882688624 20.5565455865074895 -13.6000000000069665
 -16.1437958095523086 20.3919570527751510 -13.6000000000069665
 -10.2700171618007552 20.2273685190428090 -13.6000000000069665
 -14.6225756613943147 20.1099624390654483 -13.6000000000069665
 -8.7487970136427613 19.9453739053331063 -13.6000000000069665
 -18.9287300349262040 19.7807853716007642 -13.6000000000069665
 -13.0549513871666321 19.6161968378384763 -13.6000000000069665
 -17.4075098867682101 19.4987907578910615 -13.6000000000069665
 -11.5337312390166566 19.3342022241587195 -13.6000000000069665
 -5.6599525912570812 19.1696136903964316 -13.6000000000069665
 -15.8398856125405274 19.0050251566640966 -13.6000000000069665
 -13.6627717812062457 22.3900606300605851 -13.6000000000069665
 -5.8505765847207218  0.0587030399886812 -13.6000000000069665
 -13.8722250583578912 29.8887093380053166 -9.1999999999999833
 -19.7460611698513802 29.7241208042729781 -9.1999999999999833
 -3.5083978095570743 10.6132101538352757 -9.1999999999999833
 -9.3822339210666144 10.4486216201029372 -9.1999999999999833
 -5.0297164121414166 10.3312155401555223 -9.1999999999999833
 -10.9035525236268818 10.1666270063932345 -9.1999999999999833
 -16.7773886351203707 10.0020384726608924 -9.1999999999999833
 -6.5975130775788582  9.8374499389285521 -9.1999999999999833
 -18.2987072376806381  9.7200438589511897 -9.1999999999999833
 -8.1188316801391256  9.5554553252188512 -9.1999999999999833
 -13.9926677916486675  9.3908667914865092 -9.1999999999999833
 -13.6882733671066070 10.7777986875975635 -9.1999999999999833
 -3.8127922340991329  9.2262782577242231 -9.1999999999999833
 -5.3341108366674206  8.9442836440444662 -9.1999999999999833
 -11.2079469481528857  8.7796951102821783 -9.1999999999999833
 -17.0817830596463764  8.6151065765498398 -9.1999999999999833
 -12.7292655507211752  8.4977004966024232 -9.1999999999999833
 -2.5493899931716415  8.3331119628401371 -9.1999999999999833
 -8.4232261046811825  8.1685234291077951 -9.1999999999999833
 -14.2970622161746714  8.0039348953754565 -9.1999999999999833
 -9.9445447072414499  7.8865288153980933 -9.1999999999999833
 -15.8183808187349371  7.7219402816657530 -9.1999999999999833
 -15.5139863942089331  9.1088721777768065 -9.1999999999999833
 -7.8144372556131199 10.9423872213299056 -9.1999999999999833
 -12.1669547645383211 11.0597933012773204 -9.1999999999999833
 -6.2931186530448313 11.2243818350096589 -9.1999999999999833
 -14.3428867589580129 14.4448287746738124 -9.1999999999999833
 -4.1630112014165022 14.2802402409414722 -9.1999999999999833
 -10.0368473129099911 14.1156517072091319 -9.1999999999999833
 -5.6843298039767687 13.9982456272317695 -9.1999999999999833
 -11.5581659154702567 13.8336570934994292 -9.1999999999999833
 -17.4320020269797986 13.6690685597670889 -9.1999999999999833
 -7.2521264694302641 13.5044800260048010 -9.1999999999999833
 -18.9533206295400625 13.3870739460573862 -9.1999999999999833
 -8.7734450719985535 13.2224854123250459 -9.1999999999999833
 -14.6472811834840186 13.0578968785627580 -9.1999999999999833
 -4.4674056259425070 12.8933083448304178 -9.1999999999999833
 -16.1685997860523081 12.7759022648830030 -9.1999999999999833
 -5.9887242285188274 12.6113137311207151 -9.1999999999999833
 -11.8625603400123154 12.4467251973883748 -9.1999999999999833
 -17.7363964515058044 12.2821366636560327 -9.1999999999999833
 -13.3838789425725828 12.1647305836786721 -9.1999999999999833
 -19.2577150540660682 12.0001420499463300 -9.1999999999999833
 -9.0778394965245575 11.8355535162139915 -9.1999999999999833
 -14.9516756080260755 11.6709649824517037 -9.1999999999999833
 -10.5991580990848231 11.5535589025042889 -9.1999999999999833
 -16.4729942105943650 11.3889703687719468 -9.1999999999999833
 -5.6385052611934245  7.5573517479334118 -9.1999999999999833
 -8.4690506474725495 14.6094173084361003 -9.1999999999999833
 -11.5123413726788897  7.3927632141711248 -9.1999999999999833
 -13.0336599752632321  7.1107686004913688 -9.1999999999999833
 -8.0730071373477585  3.1145614458905455 -9.1999999999999833
 -3.7204896284225599  2.9971553659431311 -9.1999999999999833
 -9.5943257399160462  2.8325668322107904 -9.1999999999999833
 -15.4681618514175661  2.6679782984485025 -9.1999999999999833
 -5.2882862938760553  2.5033897647161623 -9.1999999999999833
 -0.9357687849508558  2.3859836847687474 -9.1999999999999833
 -6.8096048964363218  2.2213951510064596 -9.1999999999999833
 -12.6834410079298099  2.0568066172741188 -9.1999999999999833
 -2.5035654503882983  1.8922180835417790 -9.1999999999999833
 -2.1991710258622930  3.2791499796528334 -9.1999999999999833
 -14.2047596104900755  1.7748120035644164 -9.1999999999999833
 -9.8987201644581067  1.4456349360997358 -9.1999999999999833
 -15.7725562759435718  1.2810464023374479 -9.1999999999999833
 -11.4200387670183705  1.1636403223900329 -9.1999999999999833
 -1.2401632094768604  0.9990517886576927 -9.1999999999999833
 -7.1139993209623267  0.8344632548954050 -9.1999999999999833
 -12.9878354324718668  0.6698747211630646 -9.1999999999999833
 -8.6353179235306143  0.5524686412156496 -9.1999999999999833
 -14.5091540350321360  0.3878801074533619 -9.1999999999999833
 -4.3292784774906226  0.2232915737210215 -9.1999999999999833
 -4.0248840529646186  1.6102234698320763 -9.1999999999999833
 -12.3790465834038059  3.4437385133851741 -9.1999999999999833
 -6.5052104719103170  3.6083270471175144 -9.1999999999999833
 -10.8577279808355165  3.7257331270649288 -9.1999999999999833
 -2.8537844177136997  6.9461800667290809 -9.1999999999999833
 -8.7276205292071882  6.7815915329967416 -9.1999999999999833
 -4.3751030202819878  6.6641854530493259 -9.1999999999999833
 -10.2489391317674539  6.4995969192870380 -9.1999999999999833
 -16.1227752432609428  6.3350083855546986 -9.1999999999999833
 -5.9428996857354832  6.1704198518223583 -9.1999999999999833
 -17.6440938458212067  6.0530137718449950 -9.1999999999999833
 -7.4642182882957497  5.8884252381126547 -9.1999999999999833
 -13.3380543997892360  5.7238367043803153 -9.1999999999999833
 -3.1581788422397046  5.5592481706180266 -9.1999999999999833
 -14.8593730023495052  5.4418420906706118 -9.1999999999999833
 -4.6794974448079927  5.2772535569382715 -9.1999999999999833
 -10.5533335562934596  5.1126650231759836 -9.1999999999999833
 -16.4271696678029997  4.9480764894436433 -9.1999999999999833
 -12.0746521588778020  4.8306704094962276 -9.1999999999999833
 -1.8947766013282670  4.6660818757339406 -9.1999999999999833
 -7.7686127128217546  4.5014933420016003 -9.1999999999999833
 -13.6424488243152418  4.3369048082692601 -9.1999999999999833
 -9.2899313153900422  4.2194987283218452 -9.1999999999999833
 -15.1637674268755092  4.0549101945595574 -9.1999999999999833
 -4.9838918693500514  3.8903216608272171 -9.1999999999999833
 -7.1598238637536928  7.2753571342237091 -9.1999999999999833
 -12.8215681563977473 14.7268233883835151 -9.1999999999999833
 -6.9477320449042601 14.8914119221158554 -9.1999999999999833
 -17.1276076024377382 15.0560004558781415 -9.1999999999999833
 -14.7854083319519560 25.7279136496721534 -9.1999999999999833
 -10.4328908230267565 25.6105075697247386 -9.1999999999999833
 -16.3067269345202455 25.4459190359924001 -9.1999999999999833
 -22.1805630460137309 25.2813305022600581 -9.1999999999999833
 -12.0006874884641981 25.1167419684977702 -9.1999999999999833
 -7.6481699795390004 24.9993358885503554 -9.1999999999999833
 -13.5220060910485405 24.8347473548180133 -9.1999999999999833
 -19.3958422025340056 24.6701588210557254 -9.1999999999999833
 -9.2159666449924966 24.5055702873233869 -9.1999999999999833
 -8.9115722204664927 25.8925021834344413 -9.1999999999999833
 -20.9171608051022950 24.3881642073759721 -9.1999999999999833
 -16.6111213590462512 24.0589871398813457 -9.1999999999999833
 -6.4312458015207907 23.8943986061490037 -9.1999999999999833
 -18.1324399616065151 23.7769925261716430 -9.1999999999999833
 -7.9525644040810581 23.6124039924393010 -9.1999999999999833
 -13.8264005155745444 23.4478154587069589 -9.1999999999999833
 -19.7002366270600113 23.2832269249446711 -9.1999999999999833
 -15.3477191181348118 23.1658208449972562 -9.1999999999999833
 -21.2215552296283008 23.0012323112649177 -9.1999999999999833
 -11.0416796720787680 22.8366437775026299 -9.1999999999999833
 -10.7372852475527623 24.2235756736136842 -9.1999999999999833
 -19.0914477779919487 26.0570907171667798 -9.1999999999999833
 -13.2176116665064818 26.2216792509290677 -9.1999999999999833
 -17.5701291754316813 26.3390853308764825 -9.1999999999999833
 -9.5661856123098659 29.5595322705406360 -9.1999999999999833
 -15.4400217238113839 29.3949437367783482 -9.1999999999999833
 -11.0875042148701333 29.2775376568309333 -9.1999999999999833
 -16.9613403263796734 29.1129491230985948 -9.1999999999999833
 -22.8351764378651403 28.9483605893363070 -9.1999999999999833
 -12.6553008803236260 28.7837720556039649 -9.1999999999999833
 -8.3027833713984283 28.6663659756565501 -9.1999999999999833
 -14.1766194828838934 28.5017774418942622 -9.1999999999999833
 -20.0504555943773823 28.3371889081619237 -9.1999999999999833
 -9.8705800368519228 28.1726003744295816 -9.1999999999999833
 -21.5717741969537009 28.0551942944522210 -9.1999999999999833
 -11.3918986394121902 27.8906057607198790 -9.1999999999999833
 -17.2657347509056791 27.7260172269875369 -9.1999999999999833
 -23.1395708623911425 27.5614286932252490 -9.1999999999999833
 -18.7870533534659430 27.4440226132778342 -9.1999999999999833
 -8.6071777959244322 27.2794340795454957 -9.1999999999999833
 -14.4810139074259538 27.1148455457832114 -9.1999999999999833
 -20.3548500189194428 26.9502570120508693 -9.1999999999999833
 -16.0023325099942397 26.8328509321034545 -9.1999999999999833
 -21.8761686214797066 26.6682623983411666 -9.1999999999999833
 -11.6962930639381941 26.5036738646088246 -9.1999999999999833
 -16.9155157835883081 22.6720552437702878 -9.1999999999999833
 -12.5629982746631086 22.5546491638228730 -9.1999999999999833
 -18.4368343861485755 22.3900606300605851 -9.1999999999999833
 -8.2569588286070612 22.2254720963282466 -9.1999999999999833
 -9.1236640393159227 18.2764473955422950 -9.1999999999999833
 -14.9975001508174444 18.1118588617800071 -9.1999999999999833
 -4.8176245932759301 17.9472703280476651 -9.1999999999999833
 -10.6914607047694190 17.7826817943153266 -9.1999999999999833
 -6.3389431958361966 17.6652757143379624 -9.1999999999999833
 -12.2127793073296864 17.5006871806056239 -9.1999999999999833
 -18.0866154188231718 17.3360986468732854 -9.1999999999999833
 -7.9067398612896929 17.1715101131109975 -9.1999999999999833
 -19.6079340213994939 17.0541040331635827 -9.1999999999999833
 -9.4280584638579814 16.8895154994312406 -9.1999999999999833
 -15.3018945753434465 16.7249269656689528 -9.1999999999999833
 -5.1220190178019349 16.5603384319366107 -9.1999999999999833
 -16.8232131779117324 16.4429323519891959 -9.1999999999999833
 -6.6433376203622014 16.2783438182269080 -9.1999999999999833
 -12.5171737318717433 16.1137552844945695 -9.1999999999999833
 -18.3910098433652287 15.9491667507622292 -9.1999999999999833
 -14.0384923344320089 15.8317606707848686 -9.1999999999999833
 -19.9123284459254961 15.6671721370525265 -9.1999999999999833
 -9.7324528883839854 15.5025836033201863 -9.1999999999999833
 -15.6062889998694523 15.3379950695578984 -9.1999999999999833
 -11.2537714909442528 15.2205889896104836 -9.1999999999999833
 -13.4761815482571752 18.3938534754897098 -9.1999999999999833
 -12.3509844148697265 29.7241208042729781 -13.6000000000069665
 -7.6023454367476351 18.5584420092220519 -9.1999999999999833
 -11.9083848828036807 18.8876190767166818 -9.1999999999999833
 -14.1307949401005501 22.0608835625959046 -9.1999999999999833
 -9.7782774311673286 21.9434774826185439 -9.1999999999999833
 -15.6521135426608176 21.7788889488862019 -9.1999999999999833
 -21.5259496541703612 21.6143004151538634 -9.1999999999999833
 -11.3460740966208249 21.4497118813915755 -9.1999999999999833
 -6.9935565876956254 21.3323058014441607 -9.1999999999999833
 -12.8673926991891125 21.1677172677118186 -9.1999999999999833
 -18.7412288106745777 21.0031287339495307 -9.1999999999999833
 -8.5613532531330669 20.8385402002171922 -9.1999999999999833
 -20.2625474132428671 20.7211341202697774 -9.1999999999999833
 -10.0826718556933344 20.5565455865074895 -9.1999999999999833
 -15.9565079672028745 20.3919570527751510 -9.1999999999999833
 -5.7766324096613637 20.2273685190428090 -9.1999999999999833
 -17.4778265697631419 20.1099624390654483 -9.1999999999999833
 -7.2979510122216302 19.9453739053331063 -9.1999999999999833
 -13.1717871237151165 19.7807853716007642 -9.1999999999999833
 -19.0456232352005870 19.6161968378384763 -9.1999999999999833
 -14.6931057262753839 19.4987907578910615 -9.1999999999999833
 -20.5669418377849240 19.3342022241587195 -9.1999999999999833
 -10.3870662802353912 19.1696136903964316 -9.1999999999999833
 -16.2609023917288802 19.0050251566640966 -9.1999999999999833
 -17.7822209942971696 18.7230305429843398 -9.1999999999999833
 -18.2247630626212782 29.8887093380053166 -13.6000000000069665
