 B                                      
   1.00000000000000     
   -13.5686129071462993    0.0007292386758408    0.0000102321138783
    -6.7795021222241303   36.3777826880654516    0.0000186109175359
     0.0000155416247107   -0.0000054580180697  -18.9969386907824749
   B 
   328
Direct
  0.4374910016864547  0.0043190547178455  0.3961082121307234
  0.5975441987778075  0.3556387216236604  0.5708308596166151
  0.0322033818771469  0.3507316112990606  0.5679761368983729
  0.4831710926355481  0.3444377616058557  0.5587772189267960
  0.3667222367748213  0.3376367496002718  0.5478769118736027
  0.8210267346119856  0.3306423290530562  0.5344055095571506
  0.2507665591736591  0.3258432304726442  0.5388294489170657
  0.7053815579084532  0.3216274156231086  0.5593794575094219
  0.1471728897366515  0.3615775003882854  0.5565445985126751
  0.5890732190663569  0.3129438860378963  0.5538316339603441
  0.4711751373188867  0.3029368036900592  0.5215093405129551
  0.9238432403696178  0.2966226145265054  0.5557933855742282
  0.8082396350742176  0.2889224112625436  0.5662093409459540
  0.2513420156010238  0.2823250170903090  0.5258408760322625
  0.6923272912952609  0.2783136103629888  0.5697891974661048
  0.1421447834602491  0.2717747673606514  0.5630137652966947
  0.0271777956939352  0.2640214313768203  0.5588299672409549
  0.0399972364523249  0.3071773702399425  0.5693147033660437
  0.2629813670190516  0.3694727296618162  0.5558628688723944
  0.8135300270091772  0.3759017481583009  0.5266762435361448
  0.3797590161366766  0.3798957150772787  0.5645887078271811
  0.0522756246194059  0.4841575254592531  0.5574112669212692
  0.5018323743695805  0.4783112410898645  0.5663036589967176
  0.9363658507540347  0.4725229146109359  0.5669833861580840
  0.3864898204121568  0.4673444627076196  0.5711490653665853
  0.2713209374690014  0.4594287479412905  0.5688807662214663
  0.7228715133255241  0.4533069673237168  0.5666949183458750
  0.1558342799553980  0.4481615911181127  0.5569331921092349
  0.6051271930931926  0.4428550038752649  0.5625556367071236
  0.4904903675603891  0.4348922041841606  0.5708436566560178
  0.9369902928735929  0.4290731712128836  0.5694134035640159
  0.3746995361780138  0.4235552194471794  0.5673350167836774
  0.8240851351559745  0.4169492243886443  0.5663242044449682
  0.7083144632753228  0.4109507063981032  0.5554472874273658
  0.1605905259923251  0.4046991950279110  0.5522465879960696
  0.5959331052764213  0.3991000153275315  0.5706531897707530
  0.0440700430478553  0.3940655451798020  0.5601805442697734
  0.9290485326834127  0.3854862951920883  0.5614835396273880
  0.4765535377459787  0.2591556995349401  0.5372219186700433
  0.1671335607278329  0.4912728917184652  0.5676877169430492
  0.9119716984181910  0.2532506935811492  0.5606597292744379
  0.2481667777207839  0.2402257662286904  0.5624848234584768
  0.2294352267886740  0.1062949480094677  0.5729775248959872
  0.6782117400075542  0.1012846425036133  0.5585119564752083
  0.5635124979416175  0.0938313874402218  0.5653790008655377
  0.0103543995513175  0.0864210983790170  0.5708875521303957
  0.4496000492033914  0.0828680063991101  0.5400114302381435
  0.8966399904120091  0.0760691829694033  0.5549209926952748
  0.7807305699227847  0.0686963140330298  0.5506667436406232
  0.7943972927986420  0.1116704624193747  0.5557555965192681
  0.2335794410467703  0.0629221494217947  0.5711756188173877
  0.1165908667397489  0.0527204314322302  0.5627949572009785
  0.0022385024722302  0.0448159981518742  0.5430236584616881
  0.4546139531449108  0.0390226043903465  0.5456114379388116
  0.8851363508571647  0.0343097804669579  0.5247202123529079
  0.3383009863649598  0.0283439354316076  0.5574789707774067
  0.2219086703979025  0.0203918765092605  0.5586863249722787
  0.6754774413867685  0.0145030557703044  0.5692656917187134
  0.6663152088051999  0.0580818723846742  0.5673295568202350
  0.3433830929114830  0.1180854159307361  0.5615412136583339
  0.4585427583598577  0.1252118199504160  0.5672321402814942
  0.0073894871696549  0.1300201255758488  0.5748953858947613
  0.6987674103616466  0.2347244948801282  0.5679821572063688
  0.1334087434057327  0.2285694918779262  0.5691643695256051
  0.5826385405953699  0.2239253374857760  0.5527605113869153
  0.4670946295948581  0.2158737303378778  0.5577552777833009
  0.9167764013423897  0.2095381136352260  0.5649449975249979
  0.3514939573606179  0.2052419780305039  0.5685659788941737
  0.8007420605575779  0.1982242279019188  0.5711808398146505
  0.6863218714146622  0.1915003676848745  0.5583764230885154
  0.1356449731060934  0.1850762714154788  0.5722916620323942
  0.5706525296392947  0.1807323657159763  0.5614671994138276
  0.0206780609039803  0.1733717623586329  0.5706144909306315
  0.9050983712581200  0.1664223254350199  0.5744196126988035
  0.3564258605359469  0.1612103870630873  0.5693856742799136
  0.7908252011147898  0.1550564311667632  0.5625238404443423
  0.2395502186048764  0.1499027162753042  0.5684565642468541
  0.1248956028748293  0.1415089948832838  0.5733538775930511
  0.5727993902109757  0.1372549182515822  0.5654878355796202
  0.3629816816200240  0.2477603949699063  0.5519355813882737
  0.1085758114188838  0.0108698048650554  0.5229399190267978
  0.7183172203177672  0.4970842125149144  0.5700035209084598
  0.8328672696277922  0.5087275971309887  0.5676876294774027
  0.8751053298893925  0.8584904305310335  0.5733537220747350
  0.7604501815493251  0.8500974637372193  0.5684568227471504
  0.2091755523325811  0.8449432852496267  0.5625239239231753
  0.6435734772432584  0.8387889862831616  0.5693847290248503
  0.0949005794062828  0.8335777131173905  0.5744198525722753
  0.9793212714075755  0.8266284316141888  0.5706151328567882
  0.4293485720867197  0.8192680116124955  0.5614661161582690
  0.4272009056351445  0.8627447605654152  0.5654859117033721
  0.8643543510154376  0.8149233343814747  0.5722920752431433
  0.1992578511495959  0.8017757557147025  0.5711809811169356
  0.6485070737699876  0.7947578557989812  0.5685649716970460
  0.0832235314402487  0.7904613659192264  0.5649454483335595
  0.5329061336372406  0.7841257743239767  0.5577536224992140
  0.4173633060353522  0.7760740446144607  0.5527595897152506
  0.8665919974251628  0.7714307457433230  0.5691646633149592
  0.3012327752928747  0.7652758549112701  0.5679824478471792
  0.3136782041331590  0.8084994341774081  0.5583762110406351
  0.9926107667052876  0.8699797056762273  0.5748959067903346
  0.5414577495810589  0.8747876784241948  0.5672316577262390
  0.6566172137894836  0.8819143054489880  0.5615418301193006
  0.3245224117758020  0.9854966784691660  0.5692651012422109
  0.7780916756198896  0.9796076282714768  0.5586865803182082
  0.6616996098910551  0.9716560147288369  0.5574786689946278
  0.1148634600008385  0.9656898903499732  0.5247196959261271
  0.5453860790033223  0.9609769994509372  0.5456119564772841
  0.9977605044026456  0.9551840986159914  0.5430241812611220
  0.8834079413899711  0.9472792524432130  0.5627947279065905
  0.3336833093819807  0.9419178645648490  0.5673286484447203
  0.7664216211791015  0.9370773199900726  0.5711750226324350
  0.2192688421600774  0.9313033833364188  0.5506649665876057
  0.1033600539312369  0.9239297996004676  0.5549215364058423
  0.5504007942252221  0.9171320486091673  0.5400140758170763
  0.9896455492809408  0.9135785184849903  0.5708864960067057
  0.4364883150121451  0.9061680897252978  0.5653787410390925
  0.3217885042456958  0.8987151240429274  0.5585109724472758
  0.7705656035768216  0.8937043472956930  0.5729775854692204
  0.2056024767925904  0.8883297502021759  0.5557558839752530
  0.7518327701891356  0.7597738183507771  0.5624826035231183
  0.2816838158649096  0.5029158767921579  0.5700040214856001
  0.6370184169867027  0.7522393174940123  0.5519332373721045
  0.5234468200872601  0.7408443122844190  0.5372201335889843
  0.9559317951340756  0.6059340386870021  0.5601800245585270
  0.4040684839016546  0.6009001536762741  0.5706547659765860
  0.8394096170792342  0.5953011794966239  0.5522475692691121
  0.2916876876747700  0.5890497027788845  0.5554478500760679
  0.1759161007189647  0.5830512276981407  0.5663247326668658
  0.6253011935410547  0.5764452106179367  0.5673349440266902
  0.0630092919584978  0.5709266718501305  0.5694130887585257
  0.0709537234533465  0.6145139695032708  0.5614841205450302
  0.5095108297815285  0.5651083178856309  0.5708442032038418
  0.8441655645267280  0.5518381937022858  0.5569329608994885
  0.2771285024043718  0.5466933898114822  0.5666964043500756
  0.7286795860814052  0.5405712544522574  0.5688801508485714
  0.6135105944845107  0.5326562686045442  0.5711488581466047
  0.0636355759483766  0.5274775013307040  0.5669836788678995
  0.4981681351962711  0.5216892558232125  0.5663034482903465
  0.9477242844411589  0.5158427687826039  0.5574116733949772
  0.3948735799261449  0.5571454070068861  0.5625568822644434
  0.6202433774249765  0.6201049806747011  0.5645894820924354
  0.1864719898577906  0.6240984056040607  0.5266780220270021
  0.7370193449454542  0.6305279106956155  0.5558628044304489
  0.9728224859888939  0.7359789448312374  0.5588291721828846
  0.8578560811548642  0.7282249883657806  0.5630122845954179
  0.3076742951947747  0.7216864735661535  0.5697902279560715
  0.7486601674877299  0.7176756512852792  0.5258381420002409
  0.1917611102393076  0.7110778189698649  0.5662104118708383
  0.0761580964359569  0.7033776231478075  0.5557937381507576
  0.5288275339818630  0.6970632239005025  0.5215076153646910
  0.9600034395422276  0.6928225431428039  0.5693146063868345
  0.4109275489437042  0.6870564207006583  0.5538322162630787
  0.2946202940910497  0.6783722654990438  0.5593794127619781
  0.7492350963061586  0.6741573314300645  0.5388259375201083
  0.1789733358630602  0.6693577565278160  0.5344055876309952
  0.6332771976250345  0.6623635153872675  0.5478771571219582
  0.5168298375718542  0.6555631496059345  0.5587777309876446
  0.9677979699013123  0.6492685617132300  0.5679757745600305
  0.4024567144154350  0.6443620369319195  0.5708319569026398
  0.8528268192121402  0.6384223822126988  0.5565434052676637
  0.0880294880784428  0.7467504034395860  0.5606602759921293
  0.5581685739446542  0.0043321420338486  0.5601879295019909
  0.5625066152472037  0.9956812998770174  0.3961085182403951
  0.1194389400827428  0.9891455434987240  0.4335360021220456
  0.6170285894686921  0.3507244659304642  0.3882717472081396
  0.1723887161490008  0.3444088799639554  0.3981745207175859
  0.2955621505177186  0.3377389288266792  0.4093978025656890
  0.8482913905533394  0.3306325636679877  0.4221761721114897
  0.4233293641482692  0.3259075518003399  0.4172607175219588
  0.9730866366855022  0.3216277094889102  0.3973272226240667
  0.0980798396017169  0.3129322585447716  0.4032386461418558
  0.0470246111995761  0.3556044460179574  0.3858344800890138
  0.6527739890075389  0.3071758907808606  0.3869383383286832
  0.7795048972171945  0.2966317189449005  0.4008380018372509
  0.9028690410796242  0.2889122395330801  0.3904373240609655
  0.4660386362160248  0.2824257520524094  0.4298619544313169
  0.0294725370384953  0.2783425689838396  0.3869601081701272
  0.5860310595438336  0.2717478496608779  0.3929910733422024
  0.7087659945606495  0.2640595674887060  0.3976907879383254
  0.2642358317977776  0.2592029925824121  0.4197854064416485
  0.2257850821778543  0.3030381118431081  0.4358852813220109
  0.4913113067126545  0.3615324387948940  0.3999278296679910
  0.3675965828191287  0.3695436737178097  0.4011073657292835
  0.8105811520785852  0.3758994472786087  0.4296865770336662
  0.0198409355804838  0.4783178576959354  0.3900234535771911
  0.5911068067815788  0.4725162373244863  0.3897157589362656
  0.1460902126774724  0.4673647912499753  0.3853492690932341
  0.2691992577590553  0.4594148813335490  0.3876087257280385
  0.8237593501119059  0.4533071279256296  0.3897301769605003
  0.3959770136873160  0.4481882671838558  0.3998994868442199
  0.9520162838663156  0.4427952490832389  0.3937087536392018
  0.0745970691999452  0.4348925198542470  0.3856268222395629
  0.6338818270215376  0.4290613087926602  0.3871323500004398
  0.2017331485765211  0.4235441526155928  0.3891468743316990
  0.7589708832044019  0.4169315417519530  0.3900467729707844
  0.8807271831455725  0.4109306484920071  0.4008676869523575
  0.4347629972844717  0.4047053367089738  0.4047588085836190
  0.0049557781939976  0.3990726950365826  0.3857404429834480
  0.5618302362559731  0.3940233929843680  0.3963404149606739
  0.6853920297756746  0.3854836380885160  0.3947886939090646
  0.2402665908124697  0.3798895821849128  0.3922786773095741
  0.8347673871432949  0.2532228508410189  0.3960516618339193
  0.4636498367395303  0.4841244574068651  0.3994577278547845
  0.3891317895288525  0.2478430876724474  0.4039780854886001
  0.0664732845489670  0.2347462029431481  0.3887244523748574
  0.2205513223124878  0.1012773802934226  0.3978687908836716
  0.3426974952623972  0.0938780170314655  0.3908177079611545
  0.9031129612310077  0.0864198298053966  0.3858273158735634
  0.4674722566650726  0.0828750433285235  0.4163715128505240
  0.0273143725315846  0.0761485781196879  0.4017910652055531
  0.1506714108754878  0.0687092396889833  0.4058083056001526
  0.7034943763304269  0.0629245584033657  0.3852575941319394
  0.6643033195930054  0.1063041869512772  0.3834851741088822
  0.2755181880017425  0.0581254915529979  0.3890495145896074
  0.9529291014594770  0.0448241274908137  0.4135602126599548
  0.5063638006723320  0.0390296148079412  0.4107505789497521
  0.0805333587951528  0.0343267348511473  0.4317383608870051
  0.6333791200468452  0.0283136427183394  0.3988628142779229
  0.7576658990408807  0.0203318651275273  0.3976958605241636
  0.3099520614876831  0.0145640714930226  0.3870841287927248
  0.8805600090325283  0.0108540007941574  0.4335366260981467
  0.8305451623792627  0.0527004899795608  0.3937905451385819
  0.0938247208255897  0.1116883242128212  0.4008514807911741
  0.5385312253092225  0.1181106870274170  0.3948070555627063
  0.4163552715446022  0.1252024916881762  0.3890520261409299
  0.6380456606661004  0.2285212854057451  0.3872720459042432
  0.1933539728560916  0.2239562621520063  0.4039954233276758
  0.3168929329889620  0.2159485614973248  0.3985125895199055
  0.8738134608613186  0.2095160966911561  0.3917712215935927
  0.4431092301431583  0.2052637730880423  0.3875096903437422
  0.0010513704124050  0.1982471351937381  0.3855841230774942
  0.1222385348439165  0.1914853118438258  0.3983004831701485
  0.6793554570059092  0.1850553374547788  0.3843123140988350
  0.2485867931258326  0.1807654480320282  0.3948544728524471
  0.8058526534211643  0.1734155686742745  0.3860183818970062
  0.9284325827017627  0.1664053347966253  0.3822717706361070
  0.4823525767705632  0.1612193477691486  0.3869224009467378
  0.0542315266727127  0.1550905302967337  0.3942059613409276
  0.6106340326490994  0.1498580070486932  0.3881492062401453
  0.7336667573810929  0.1415194434032549  0.3832255528211225
  0.2900069826220320  0.1372845434615891  0.3907664405878815
  0.8626624927138121  0.1300194848810217  0.3817934774296642
  0.5115420645356061  0.2401890667491885  0.3934538426903547
  0.3416482581892873  0.4912708970515783  0.3889391651281753
  0.7846159770829909  0.4971121778031556  0.3866108279058950
  0.2153826440992235  0.5028877305374744  0.3866147528929129
  0.2663339525975950  0.8584802239843218  0.3832251604909118
  0.3893652388016300  0.8501414797595417  0.3881485040135167
  0.9457660161332188  0.8449104390279806  0.3942057492631155
  0.5176476191510899  0.8387804383999760  0.3869228369798903
  0.0715672213544471  0.8335946033342966  0.3822710839732853
  0.1941475597963856  0.8265854510749134  0.3860173264587069
  0.7514133772193315  0.8192345693421493  0.3948528834281434
  0.7099943324177100  0.8627143937718629  0.3907653602451691
  0.3206438224803737  0.8149442571007046  0.3843119230133707
 -0.0010507536266255  0.8017523632183345  0.3855834726009938
  0.5568909267674428  0.7947368161316412  0.3875084302223292
  0.1261847231828545  0.7904838383637565  0.3917703977700022
  0.6831067452862569  0.7840511731936765  0.3985117471043172
  0.8066448944902925  0.7760432904756718  0.4039953908174640
  0.3619531323517154  0.7714787505027099  0.3872713715295594
  0.9335270963205170  0.7652533328128455  0.3887238211145184
  0.8777619800932751  0.8085151421875849  0.3983002892724904
  0.1373365047378706  0.8699803414359096  0.3817936205889350
  0.5836439790652586  0.8747974243344311  0.3890528924126999
  0.4614689130020166  0.8818884932692039  0.3948059257699530
  0.6900482357056640  0.9854356969865044  0.3870852303766844
  0.2423339126216527  0.9796678431750782  0.3976952133983723
  0.3666207321576228  0.9716863680826724  0.3988629500766898
  0.9194668004865941  0.9656726294918206  0.4317391554493329
  0.4936379069982109  0.9609693664442076  0.4107511758069172
  0.0470694382869542  0.9551766922890510  0.4135603957007517
  0.1694519337520168  0.9472994447589232  0.3937894278404991
  0.7244805173212542  0.9418743113204265  0.3890499407956567
  0.2965071350766668  0.9370744783854889  0.3852574355220486
  0.8493269993884853  0.9312909254924225  0.4058071068481670
  0.9726857164385985  0.9238520577885979  0.4017913896755276
  0.5325278007079646  0.9171245572645832  0.4163696311133051
  0.0968863233796939  0.9135793160676646  0.3858260878976640
  0.6573022090475836  0.9061214969087852  0.3908188359277998
  0.7794479138419043  0.8987218005067418  0.3978679900109309
  0.3356961727271234  0.8936966043887378  0.3834850229995821
  0.9061761074074864  0.8883115336490948  0.4008509795259381
  0.4884583993147857  0.7598106134677463  0.3934525850097889
  0.6108676803384664  0.7521561119628193  0.4039765623731020
  0.1652299801952495  0.7467781455218321  0.3960507048532778
  0.7357632033815868  0.7407964827637691  0.4197869221709149
  0.4381676777579959  0.6059766158425590  0.3963430014131076
 -0.0049562185799969  0.6009270053786602  0.3857380910594751
  0.5652364359287805  0.5952945165142882  0.4047614599322900
  0.1192715368486053  0.5890696240775821  0.4008678574642155
  0.2410290351296004  0.5830688847728241  0.3900478958766611
  0.7982650030117175  0.5764561696122630  0.3891448290766071
  0.3661170613663018  0.5709389994408580  0.3871353189863009
  0.9254012605013363  0.5651080050986870  0.3856253818177119
  0.0479805080374784  0.5572053204605653  0.3937074216530916
  0.6040231825663473  0.5518112540291347  0.3999006275250938
  0.1762394845183016  0.5466936953838494  0.3897315881404874
  0.7308020183799036  0.5405850002336374  0.3876067093925877
  0.8539108573973240  0.5326359726581907  0.3853459928825558
  0.4088934504131130  0.5274839234656264  0.3897183505193408
  0.9801579991751771  0.5216826383448443  0.3900220773909836
  0.5363501090261192  0.5158757364206225  0.3994580612555340
  0.6583519089619917  0.5087288771543037  0.3889371602163221
  0.3146056228974246  0.6145164305273332  0.3947896461328284
  0.8914246264139117  0.9891303859501617  0.5229389817286695
  0.7597335833568206  0.6201100409485010  0.3922772519593127
  0.6324024362159257  0.6304566879981858  0.4011094002134824
  0.2912333727108021  0.7359409404191163  0.3976904572326742
  0.4139687808473724  0.7282526016512756  0.3929902988484128
  0.9705261881763340  0.7216580464903521  0.3869600582241794
  0.5339611037616272  0.7175748607805336  0.4298620537211398
  0.0971314886917840  0.7110880161418378  0.3904372482972995
  0.2204954288181039  0.7033680426921010  0.4008384149037000
  0.7742140273168863  0.6969611726162663  0.4358886781637872
  0.3472247352440388  0.6928236175124238  0.3869382407542879
  0.9019183144704597  0.6870676967677024  0.4032406808271549
  0.0269113680139349  0.6783718967762636  0.3973278790934284
  0.5766710945822573  0.6740917312947368  0.4172623074960591
  0.1517081502139790  0.6693674261362796  0.4221769062828275
  0.7044385817666314  0.6622608409912900  0.4094000833702878
  0.8276095213210910  0.6555921649215390  0.3981752192755288
  0.3829720218514918  0.6492753958153858  0.3882717070136573
  0.9529741260790888  0.6443966661926815  0.3858340751922285
  0.5086883124116525  0.6384678654684071  0.3999288844782398
  0.1894163853596099  0.6241006515033709  0.4296860038059896
  0.4418320944382807  0.9956671328840258  0.5601886707063868
 
  0.00000000E+00  0.00000000E+00  0.00000000E+00
  0.00000000E+00  0.00000000E+00  0.00000000E+00
  0.00000000E+00  0.00000000E+00  0.00000000E+00
  0.00000000E+00  0.00000000E+00  0.00000000E+00
  0.00000000E+00  0.00000000E+00  0.00000000E+00
  0.00000000E+00  0.00000000E+00  0.00000000E+00
  0.00000000E+00  0.00000000E+00  0.00000000E+00
  0.00000000E+00  0.00000000E+00  0.00000000E+00
  0.00000000E+00  0.00000000E+00  0.00000000E+00
  0.00000000E+00  0.00000000E+00  0.00000000E+00
  0.00000000E+00  0.00000000E+00  0.00000000E+00
  0.00000000E+00  0.00000000E+00  0.00000000E+00
  0.00000000E+00  0.00000000E+00  0.00000000E+00
  0.00000000E+00  0.00000000E+00  0.00000000E+00
  0.00000000E+00  0.00000000E+00  0.00000000E+00
  0.00000000E+00  0.00000000E+00  0.00000000E+00
  0.00000000E+00  0.00000000E+00  0.00000000E+00
  0.00000000E+00  0.00000000E+00  0.00000000E+00
  0.00000000E+00  0.00000000E+00  0.00000000E+00
  0.00000000E+00  0.00000000E+00  0.00000000E+00
  0.00000000E+00  0.00000000E+00  0.00000000E+00
  0.00000000E+00  0.00000000E+00  0.00000000E+00
  0.00000000E+00  0.00000000E+00  0.00000000E+00
  0.00000000E+00  0.00000000E+00  0.00000000E+00
  0.00000000E+00  0.00000000E+00  0.00000000E+00
  0.00000000E+00  0.00000000E+00  0.00000000E+00
  0.00000000E+00  0.00000000E+00  0.00000000E+00
  0.00000000E+00  0.00000000E+00  0.00000000E+00
  0.00000000E+00  0.00000000E+00  0.00000000E+00
  0.00000000E+00  0.00000000E+00  0.00000000E+00
  0.00000000E+00  0.00000000E+00  0.00000000E+00
  0.00000000E+00  0.00000000E+00  0.00000000E+00
  0.00000000E+00  0.00000000E+00  0.00000000E+00
  0.00000000E+00  0.00000000E+00  0.00000000E+00
  0.00000000E+00  0.00000000E+00  0.00000000E+00
  0.00000000E+00  0.00000000E+00  0.00000000E+00
  0.00000000E+00  0.00000000E+00  0.00000000E+00
  0.00000000E+00  0.00000000E+00  0.00000000E+00
  0.00000000E+00  0.00000000E+00  0.00000000E+00
  0.00000000E+00  0.00000000E+00  0.00000000E+00
  0.00000000E+00  0.00000000E+00  0.00000000E+00
  0.00000000E+00  0.00000000E+00  0.00000000E+00
  0.00000000E+00  0.00000000E+00  0.00000000E+00
  0.00000000E+00  0.00000000E+00  0.00000000E+00
  0.00000000E+00  0.00000000E+00  0.00000000E+00
  0.00000000E+00  0.00000000E+00  0.00000000E+00
  0.00000000E+00  0.00000000E+00  0.00000000E+00
  0.00000000E+00  0.00000000E+00  0.00000000E+00
  0.00000000E+00  0.00000000E+00  0.00000000E+00
  0.00000000E+00  0.00000000E+00  0.00000000E+00
  0.00000000E+00  0.00000000E+00  0.00000000E+00
  0.00000000E+00  0.00000000E+00  0.00000000E+00
  0.00000000E+00  0.00000000E+00  0.00000000E+00
  0.00000000E+00  0.00000000E+00  0.00000000E+00
  0.00000000E+00  0.00000000E+00  0.00000000E+00
  0.00000000E+00  0.00000000E+00  0.00000000E+00
  0.00000000E+00  0.00000000E+00  0.00000000E+00
  0.00000000E+00  0.00000000E+00  0.00000000E+00
  0.00000000E+00  0.00000000E+00  0.00000000E+00
  0.00000000E+00  0.00000000E+00  0.00000000E+00
  0.00000000E+00  0.00000000E+00  0.00000000E+00
  0.00000000E+00  0.00000000E+00  0.00000000E+00
  0.00000000E+00  0.00000000E+00  0.00000000E+00
  0.00000000E+00  0.00000000E+00  0.00000000E+00
  0.00000000E+00  0.00000000E+00  0.00000000E+00
  0.00000000E+00  0.00000000E+00  0.00000000E+00
  0.00000000E+00  0.00000000E+00  0.00000000E+00
  0.00000000E+00  0.00000000E+00  0.00000000E+00
  0.00000000E+00  0.00000000E+00  0.00000000E+00
  0.00000000E+00  0.00000000E+00  0.00000000E+00
  0.00000000E+00  0.00000000E+00  0.00000000E+00
  0.00000000E+00  0.00000000E+00  0.00000000E+00
  0.00000000E+00  0.00000000E+00  0.00000000E+00
  0.00000000E+00  0.00000000E+00  0.00000000E+00
  0.00000000E+00  0.00000000E+00  0.00000000E+00
  0.00000000E+00  0.00000000E+00  0.00000000E+00
  0.00000000E+00  0.00000000E+00  0.00000000E+00
  0.00000000E+00  0.00000000E+00  0.00000000E+00
  0.00000000E+00  0.00000000E+00  0.00000000E+00
  0.00000000E+00  0.00000000E+00  0.00000000E+00
  0.00000000E+00  0.00000000E+00  0.00000000E+00
  0.00000000E+00  0.00000000E+00  0.00000000E+00
  0.00000000E+00  0.00000000E+00  0.00000000E+00
  0.00000000E+00  0.00000000E+00  0.00000000E+00
  0.00000000E+00  0.00000000E+00  0.00000000E+00
  0.00000000E+00  0.00000000E+00  0.00000000E+00
  0.00000000E+00  0.00000000E+00  0.00000000E+00
  0.00000000E+00  0.00000000E+00  0.00000000E+00
  0.00000000E+00  0.00000000E+00  0.00000000E+00
  0.00000000E+00  0.00000000E+00  0.00000000E+00
  0.00000000E+00  0.00000000E+00  0.00000000E+00
  0.00000000E+00  0.00000000E+00  0.00000000E+00
  0.00000000E+00  0.00000000E+00  0.00000000E+00
  0.00000000E+00  0.00000000E+00  0.00000000E+00
  0.00000000E+00  0.00000000E+00  0.00000000E+00
  0.00000000E+00  0.00000000E+00  0.00000000E+00
  0.00000000E+00  0.00000000E+00  0.00000000E+00
  0.00000000E+00  0.00000000E+00  0.00000000E+00
  0.00000000E+00  0.00000000E+00  0.00000000E+00
  0.00000000E+00  0.00000000E+00  0.00000000E+00
  0.00000000E+00  0.00000000E+00  0.00000000E+00
  0.00000000E+00  0.00000000E+00  0.00000000E+00
  0.00000000E+00  0.00000000E+00  0.00000000E+00
  0.00000000E+00  0.00000000E+00  0.00000000E+00
  0.00000000E+00  0.00000000E+00  0.00000000E+00
  0.00000000E+00  0.00000000E+00  0.00000000E+00
  0.00000000E+00  0.00000000E+00  0.00000000E+00
  0.00000000E+00  0.00000000E+00  0.00000000E+00
  0.00000000E+00  0.00000000E+00  0.00000000E+00
  0.00000000E+00  0.00000000E+00  0.00000000E+00
  0.00000000E+00  0.00000000E+00  0.00000000E+00
  0.00000000E+00  0.00000000E+00  0.00000000E+00
  0.00000000E+00  0.00000000E+00  0.00000000E+00
  0.00000000E+00  0.00000000E+00  0.00000000E+00
  0.00000000E+00  0.00000000E+00  0.00000000E+00
  0.00000000E+00  0.00000000E+00  0.00000000E+00
  0.00000000E+00  0.00000000E+00  0.00000000E+00
  0.00000000E+00  0.00000000E+00  0.00000000E+00
  0.00000000E+00  0.00000000E+00  0.00000000E+00
  0.00000000E+00  0.00000000E+00  0.00000000E+00
  0.00000000E+00  0.00000000E+00  0.00000000E+00
  0.00000000E+00  0.00000000E+00  0.00000000E+00
  0.00000000E+00  0.00000000E+00  0.00000000E+00
  0.00000000E+00  0.00000000E+00  0.00000000E+00
  0.00000000E+00  0.00000000E+00  0.00000000E+00
  0.00000000E+00  0.00000000E+00  0.00000000E+00
  0.00000000E+00  0.00000000E+00  0.00000000E+00
  0.00000000E+00  0.00000000E+00  0.00000000E+00
  0.00000000E+00  0.00000000E+00  0.00000000E+00
  0.00000000E+00  0.00000000E+00  0.00000000E+00
  0.00000000E+00  0.00000000E+00  0.00000000E+00
  0.00000000E+00  0.00000000E+00  0.00000000E+00
  0.00000000E+00  0.00000000E+00  0.00000000E+00
  0.00000000E+00  0.00000000E+00  0.00000000E+00
  0.00000000E+00  0.00000000E+00  0.00000000E+00
  0.00000000E+00  0.00000000E+00  0.00000000E+00
  0.00000000E+00  0.00000000E+00  0.00000000E+00
  0.00000000E+00  0.00000000E+00  0.00000000E+00
  0.00000000E+00  0.00000000E+00  0.00000000E+00
  0.00000000E+00  0.00000000E+00  0.00000000E+00
  0.00000000E+00  0.00000000E+00  0.00000000E+00
  0.00000000E+00  0.00000000E+00  0.00000000E+00
  0.00000000E+00  0.00000000E+00  0.00000000E+00
  0.00000000E+00  0.00000000E+00  0.00000000E+00
  0.00000000E+00  0.00000000E+00  0.00000000E+00
  0.00000000E+00  0.00000000E+00  0.00000000E+00
  0.00000000E+00  0.00000000E+00  0.00000000E+00
  0.00000000E+00  0.00000000E+00  0.00000000E+00
  0.00000000E+00  0.00000000E+00  0.00000000E+00
  0.00000000E+00  0.00000000E+00  0.00000000E+00
  0.00000000E+00  0.00000000E+00  0.00000000E+00
  0.00000000E+00  0.00000000E+00  0.00000000E+00
  0.00000000E+00  0.00000000E+00  0.00000000E+00
  0.00000000E+00  0.00000000E+00  0.00000000E+00
  0.00000000E+00  0.00000000E+00  0.00000000E+00
  0.00000000E+00  0.00000000E+00  0.00000000E+00
  0.00000000E+00  0.00000000E+00  0.00000000E+00
  0.00000000E+00  0.00000000E+00  0.00000000E+00
  0.00000000E+00  0.00000000E+00  0.00000000E+00
  0.00000000E+00  0.00000000E+00  0.00000000E+00
  0.00000000E+00  0.00000000E+00  0.00000000E+00
  0.00000000E+00  0.00000000E+00  0.00000000E+00
  0.00000000E+00  0.00000000E+00  0.00000000E+00
  0.00000000E+00  0.00000000E+00  0.00000000E+00
  0.00000000E+00  0.00000000E+00  0.00000000E+00
  0.00000000E+00  0.00000000E+00  0.00000000E+00
  0.00000000E+00  0.00000000E+00  0.00000000E+00
  0.00000000E+00  0.00000000E+00  0.00000000E+00
  0.00000000E+00  0.00000000E+00  0.00000000E+00
  0.00000000E+00  0.00000000E+00  0.00000000E+00
  0.00000000E+00  0.00000000E+00  0.00000000E+00
  0.00000000E+00  0.00000000E+00  0.00000000E+00
  0.00000000E+00  0.00000000E+00  0.00000000E+00
  0.00000000E+00  0.00000000E+00  0.00000000E+00
  0.00000000E+00  0.00000000E+00  0.00000000E+00
  0.00000000E+00  0.00000000E+00  0.00000000E+00
  0.00000000E+00  0.00000000E+00  0.00000000E+00
  0.00000000E+00  0.00000000E+00  0.00000000E+00
  0.00000000E+00  0.00000000E+00  0.00000000E+00
  0.00000000E+00  0.00000000E+00  0.00000000E+00
  0.00000000E+00  0.00000000E+00  0.00000000E+00
  0.00000000E+00  0.00000000E+00  0.00000000E+00
  0.00000000E+00  0.00000000E+00  0.00000000E+00
  0.00000000E+00  0.00000000E+00  0.00000000E+00
  0.00000000E+00  0.00000000E+00  0.00000000E+00
  0.00000000E+00  0.00000000E+00  0.00000000E+00
  0.00000000E+00  0.00000000E+00  0.00000000E+00
  0.00000000E+00  0.00000000E+00  0.00000000E+00
  0.00000000E+00  0.00000000E+00  0.00000000E+00
  0.00000000E+00  0.00000000E+00  0.00000000E+00
  0.00000000E+00  0.00000000E+00  0.00000000E+00
  0.00000000E+00  0.00000000E+00  0.00000000E+00
  0.00000000E+00  0.00000000E+00  0.00000000E+00
  0.00000000E+00  0.00000000E+00  0.00000000E+00
  0.00000000E+00  0.00000000E+00  0.00000000E+00
  0.00000000E+00  0.00000000E+00  0.00000000E+00
  0.00000000E+00  0.00000000E+00  0.00000000E+00