ALGO = Fast
EDIFF = 1e-05
EDIFFG = -0.01
ENCUT = 400
IBRION = 2
POTIM = 0.1
#ICHARG = 0
ISIF = 3
ISMEAR = 0
ISPIN = 2
ISYM = 0
#LAECHG = True
#LCHARG = True
LORBIT = 11
IVDW = 11
LREAL = Auto
#LVHAR = True
#LVTOT = True
LWAVE = False
NELM = 500
#NPAR = 2
#LASPH = True
NSW = 100
PREC = Accurate
SIGMA = 0.05
