 B 
 1.0000000000000000
   -13.2830586971710005   -0.0000000000000000   -0.0000000000000000
    -6.6352110375580002   30.2847816245560004   -0.0000000000000000
    -0.0000000000000000   -0.0000000000000000  -23.0000000000000000
 B  
 328
Cartesian
 -5.8471018148360647  0.2105530975998813 -9.1999999999999833
 -10.2622137436925733 10.7633960526705295 -12.8000000000069694
 -2.8543873835141400 10.6575470476333027 -12.8000000000069694
 -8.7296197205067099 10.5516980425960760 -12.8000000000069694
 -7.1409403637031001 10.1305918473660288 -12.8000000000069694
 -13.0161727006956696 10.0247428423288003 -12.8000000000069694
 -5.6083463405106029  9.9188938372612903 -12.8000000000069694
 -11.4835786775031714  9.8130448322240618 -12.8000000000069694
 -4.3869814067000030 10.8692450577077562 -12.8000000000069694
 -9.8948993206995635  9.3919386369940145 -12.8000000000069694
 -8.3623052975137000  9.1802406269195611 -12.8000000000069694
 -14.2375376345062694  9.0743916218823344 -12.8000000000069694
 -12.6488582777026597  8.6532854266522854 -12.8000000000069694
 -5.2410319175242295  8.5474364216150587 -12.8000000000069694
 -11.1162642545101633  8.4415874165475469 -12.8000000000069694
 -3.7084378943317313  8.3357384115103201 -12.8000000000069694
 -2.1197585375281229  7.9146322162802729 -12.8000000000069694
 -2.4870729605211315  9.2860896319567878 -12.8000000000069694
 -5.9756607635036119 11.2903512529378052 -12.8000000000069694
 -13.3834871236820430 11.3962002579750319 -12.8000000000069694
 -7.5082547866894753 11.5020492630122586 -12.8000000000069694
 -3.9002453188687851 14.5625111094769704 -12.8000000000069694
 -9.7754776558613550 14.4566621044397419 -12.8000000000069694
 -15.6507099928539244 14.3508130994025151 -12.8000000000069694
 -8.2428836326754915 14.2449640943652884 -12.8000000000069694
 -6.6542042758718836 13.8238578991352412 -12.8000000000069694
 -12.5294366128644512 13.7180088940980145 -12.8000000000069694
 -5.1216102526860201 13.6121598890607878 -12.8000000000069694
 -10.9968425896719530 13.5063108839932742 -12.8000000000069694
 -9.4081632328749798 13.0852046887935121 -12.8000000000069694
 -15.2833955698609145 12.9793556837260002 -12.8000000000069694
 -7.8755692096824834 12.8735066786887735 -12.8000000000069694
 -13.7508015466750528 12.7676576736515468 -12.8000000000069694
 -12.1621221898714431 12.3465514784214996 -12.8000000000069694
 -4.7542958296930120 12.2407024733842711 -12.8000000000069694
 -10.6295281666855796 12.1348534683470444 -12.8000000000069694
 -3.2217018065005139 12.0290044632795325 -12.8000000000069694
 -14.9160811468745411 11.6078982680797704 -12.8000000000069694
 -7.9949908745206919  7.8087832112430462 -12.8000000000069694
 -5.4889246756723944 14.9836173047070176 -12.8000000000069694
 -13.8702232115132613  7.7029342062058195 -12.8000000000069694
 -4.8737174945312205  7.1759790059385438 -12.8000000000069694
 -3.8278595591699398  3.2710149440645924 -12.8000000000069694
 -9.7030918961625101  3.1651659390273656 -12.8000000000069694
 -8.1144125393588986  2.7440597437973180 -12.8000000000069694
 -0.7065861791804686  2.6382107387600913 -12.8000000000069694
 -6.5818185161730369  2.5323617337228637 -12.8000000000069694
 -12.4570508531656063  2.4265127286856365 -12.8000000000069694
 -10.8683714963619984  2.0054065334555897 -12.8000000000069694
 -11.2356859193550065  3.3768639491321046 -12.8000000000069694
 -3.4605451361835664  1.8995575284183623 -12.8000000000069694
 -1.9279511129910682  1.6878595183136234 -12.8000000000069694
 -0.3392717561874598  1.2667533230835761 -12.8000000000069694
 -6.2145040931800288  1.1609043180463487 -12.8000000000069694
 -12.0897364301725982  1.0550553130091218 -12.8000000000069694
 -4.6819100699941663  0.9492063079718948 -12.8000000000069694
 -3.0932307131905574  0.5281001127418474 -12.8000000000069694
 -8.9684630501831268  0.4222511077046203 -12.8000000000069694
 -9.3357774731695002  1.7937085233508505 -12.8000000000069694
 -5.3604535823624380  3.4827129541693314 -12.8000000000069694
 -6.9491329391660459  3.9038191493993790 -12.8000000000069694
 -1.0739006021734774  4.0096681544366062 -12.8000000000069694
 -10.7489498315237899  7.0701300009013170 -12.8000000000069694
 -3.3411234713453579  6.9642809958640903 -12.8000000000069694
 -9.2163558083312918  6.8584319907965776 -12.8000000000069694
 -7.6276764515343176  6.4373257955968164 -12.8000000000069694
 -13.5029087885202532  6.3314767905293037 -12.8000000000069694
 -6.0950824283418203  6.2256277854920770 -12.8000000000069694
 -11.9703147653343880  6.1197787804548494 -12.8000000000069694
 -10.3816354085307800  5.6986725852248021 -12.8000000000069694
 -2.9738090483523489  5.5928235801875754 -12.8000000000069694
 -8.8490413853449184  5.4869745751503478 -12.8000000000069694
 -1.4412150251598508  5.3811255700828360 -12.8000000000069694
 -13.1355943655338780  4.9600193748830730 -12.8000000000069694
 -5.7277680053488114  4.8541703698155612 -12.8000000000069694
 -11.6030003423413799  4.7483213647783344 -12.8000000000069694
 -4.1951739821629488  4.6424723597411077 -12.8000000000069694
 -2.6064946253593400  4.2213661645110605 -12.8000000000069694
 -8.4817269623519085  4.1155171594738338 -12.8000000000069694
 -6.4623968513348284  7.5970852011685910 -12.8000000000069694
 -1.5606366900046948  0.3164021026673932 -12.8000000000069694
 -12.8967510358508264 15.0894663097442443 -12.8000000000069694
 -14.4293450590566081 15.3011643198489846 -12.8000000000069694
 -17.3117751093696626 26.0634154600449399 -12.8000000000069694
 -15.7230957525660511 25.6423092648148945 -12.8000000000069694
 -8.3152693923876200 25.5364602597776660 -12.8000000000069694
 -14.1905017293801876 25.4306112547404410 -12.8000000000069694
 -6.7826753691951218 25.3247622496729257 -12.8000000000069694
 -18.4770547095691491 24.9036560544731636 -12.8000000000069694
 -11.0692283493840833 24.7978070494056517 -12.8000000000069694
 -11.4365427723770914 26.1692644650821684 -12.8000000000069694
 -16.9444606863766509 24.6919580443684268 -12.8000000000069694
 -7.9479549693946119 24.1650028441011528 -12.8000000000069694
 -13.8231873063871813 24.0591538390639244 -12.8000000000069694
 -6.4153609462087493 23.9533048340266994 -12.8000000000069694
 -12.2905932831946831 23.8474558289591840 -12.8000000000069694
 -10.7019139263977081 23.4263496337594219 -12.8000000000069694
 -16.5771462633836428 23.3205006286919101 -12.8000000000069694
 -9.1693199032052100 23.2146516236546816 -12.8000000000069694
 -9.5366343261982198 24.5861090393311983 -12.8000000000069694
 -18.8443691325555243 26.2751134701193934 -12.8000000000069694
 -12.9691367955629548 26.3809624751566218 -12.8000000000069694
 -14.5578161523665628 26.8020686703866673 -12.8000000000069694
 -10.9498066845458748 29.8625305168513826 -12.8000000000069694
 -16.8250390215384442 29.7566815118141541 -12.8000000000069694
 -15.2363596647348345 29.3355753165841051 -12.8000000000069694
 -7.8285333045564034 29.2297263115468766 -12.8000000000069694
 -13.7037656415489728 29.1238773065096517 -12.8000000000069694
 -19.5789979785415404 29.0180283014724232 -12.8000000000069694
 -17.9903186217379343 28.5969221062423777 -12.8000000000069694
 -10.5824922615595014 28.4910731012051492 -12.8000000000069694
 -16.4577245985454361 28.3852240961376410 -12.8000000000069694
 -9.0498982383670032 28.2793750911004125 -12.8000000000069694
 -7.4612188815633944 27.8582688958703635 -12.8000000000069694
 -13.3364512185559629 27.7524198908331350 -12.8000000000069694
 -19.2116835555485324 27.6465708857959100 -12.8000000000069694
 -11.8038571953700995 27.5407218807586816 -12.8000000000069694
 -10.2151778385664933 27.1196156855286361 -12.8000000000069694
 -16.0904101755590609 27.0137666804914076 -12.8000000000069694
 -8.6825838153739952 26.9079176754238958 -12.8000000000069694
 -15.0445522401977811 23.1088026186174567 -12.8000000000069694
 -7.0215186988781753 15.1953153148117579 -12.8000000000069694
 -13.4558728833941732 22.6876964233874112 -12.8000000000069694
 -11.9232788602083097 22.4759984133129542 -12.8000000000069694
 -16.6965679282284860 18.2557771612764697 -12.8000000000069694
 -9.2887415680434202 18.1499281562089578 -12.8000000000069694
 -15.1639739050359896 18.0440791511717258 -12.8000000000069694
 -7.7561475448575568 17.9382301461345008 -12.8000000000069694
 -6.1674681880539488 17.5171239509044518 -12.8000000000069694
 -12.0427005250465200 17.4112749458672269 -12.8000000000069694
 -4.6348741648680862 17.3054259408299984 -12.8000000000069694
 -5.0021885878544605 18.6768833564762318 -12.8000000000069694
 -10.5101065018540183 17.1995769357624901 -12.8000000000069694
 -14.7966594820429798 16.6726217354952126 -12.8000000000069694
 -7.3888331218645487 16.5667727304579842 -12.8000000000069694
 -13.2640654588571181 16.4609237254207592 -12.8000000000069694
 -11.6753861020535084 16.0398175301907102 -12.8000000000069694
 -4.2675597418750773 15.9339685251534853 -12.8000000000069694
 -10.1427920788676467 15.8281195201162586 -12.8000000000069694
 -16.0180244158602179 15.7222705150790301 -12.8000000000069694
 -8.9214271450570468 16.7784707405627245 -12.8000000000069694
 -12.4100149480395281 18.7827323615437400 -12.8000000000069694
 -6.5347826110469569 18.8885813665809685 -12.8000000000069694
 -13.9426089712253898 18.9944303716181935 -12.8000000000069694
 -17.7985111972008809 22.3701494082757293 -12.8000000000069694
 -16.2098318403972712 21.9490432130456803 -12.8000000000069694
 -8.8020054802188383 21.8431942080084518 -12.8000000000069694
 -14.6772378172047713 21.7373452029409400 -12.8000000000069694
 -7.2694114570263402 21.6314961979037150 -12.8000000000069694
 -5.6807321002227313 21.2103900026736660 -12.8000000000069694
 -11.5559644372153016 21.1045409976364411 -12.8000000000069694
 -17.4311967742078693 20.9986919925992126 -12.8000000000069694
 -10.0233704140294382 20.8928429875619841 -12.8000000000069694
 -8.4346910572258285 20.4717367923319387 -12.8000000000069694
 -14.3099233942183979 20.3658877872947102 -12.8000000000069694
 -6.9020970340333321 20.2600387822271983 -12.8000000000069694
 -12.7773293710258997 20.1541897771899734 -12.8000000000069694
 -11.1886500142222918 19.7330835819599244 -12.8000000000069694
 -17.0638823512148612 19.6272345769226995 -12.8000000000069694
 -9.6560559910364283 19.5213855718854710 -12.8000000000069694
 -15.5312883280289977 19.4155365668482425 -12.8000000000069694
 -6.0480465232157403 22.5818474183501827 -12.8000000000069694
 -7.4358690269773451  0.2105530975998813 -12.8000000000069694
 -14.0711679198929360 30.0742285269561194 -9.1999999999999833
 -8.1959797494288633 29.9683795218886075 -9.1999999999999833
 -10.4242243476610703 10.6575470476333027 -9.1999999999999833
 -4.5490361772036323 10.5516980425960760 -9.1999999999999833
 -6.1378912446958669 10.1305918473660288 -9.1999999999999833
 -13.5457617714094294 10.0247428423288003 -9.1999999999999833
 -7.6705736009586403  9.9188938372612903 -9.1999999999999833
 -15.0784441276722010  9.8130448322240618 -9.1999999999999833
 -3.3842404979934360  9.3919386369940145 -9.1999999999999833
 -3.0163538209475078 10.7633960526705295 -9.1999999999999833
 -10.7921110247069976  9.2860896319567878 -9.1999999999999833
 -12.3247933809631238  9.0743916218823344 -9.1999999999999833
 -13.9136484484553584  8.6532854266522854 -9.1999999999999833
 -8.0384602779979204  8.5474364216150587 -9.1999999999999833
 -2.1632721075471295  8.4415874165475469 -9.1999999999999833
 -9.5711426342606920  8.3357384115103201 -9.1999999999999833
 -11.1599977017529284  7.9146322162802729 -9.1999999999999833
 -5.2848095312954886  7.8087832112430462 -9.1999999999999833
 -4.9169228542495613  9.1802406269195611 -9.1999999999999833
 -8.8915419914049458 10.8692450577077562 -9.1999999999999833
 -7.3026869239127112 11.2903512529378052 -9.1999999999999833
 -13.1778750943701475 11.3962002579750319 -9.1999999999999833
 -3.5015488572953224 14.4566621044397419 -9.1999999999999833
 -10.9094193840221685 14.3508130994025151 -9.1999999999999833
 -5.0342312135647305 14.2449640943652884 -9.1999999999999833
 -6.6230862810569651 13.8238578991352412 -9.1999999999999833
 -14.0309568077705276 13.7180088940980145 -9.1999999999999833
 -8.1557686373130895 13.6121598890607878 -9.1999999999999833
 -15.5636391640200156 13.5063108839932742 -9.1999999999999833
 -3.8694355343478861 13.0852046887935121 -9.1999999999999833
 -11.2773060610548139 12.9793556837260002 -9.1999999999999833
 -5.4021178906106586 12.8735066786887735 -9.1999999999999833
 -12.8099884173242220 12.7676576736515468 -9.1999999999999833
 -14.3988434848164548 12.3465514784214996 -9.1999999999999833
 -8.5236553143590186 12.2407024733842711 -9.1999999999999833
 -15.9315258410725793 12.1348534683470444 -9.1999999999999833
 -10.0563376706085066 12.0290044632795325 -9.1999999999999833
 -11.6451927381073759 11.6078982680797704 -9.1999999999999833
 -5.7700045676433032 11.5020492630122586 -9.1999999999999833
 -12.6926800580090511  7.7029342062058195 -9.1999999999999833
 -9.3767370277527604 14.5625111094769704 -9.1999999999999833
 -6.8174918875516131  7.5970852011685910 -9.1999999999999833
 -2.5311587845864096  7.0701300009013170 -9.1999999999999833
 -3.5786461044880848  3.1651659390273656 -9.1999999999999833
 -5.1675011719803194  2.7440597437973180 -9.1999999999999833
 -12.5753716986938819  2.6382107387600913 -9.1999999999999833
 -6.7001835282364439  2.5323617337228637 -9.1999999999999833
 -0.8249953577922886  2.4265127286856365 -9.1999999999999833
 -2.4138504252712401  2.0054065334555897 -9.1999999999999833
 -9.8217209519980848  1.8995575284183623 -9.1999999999999833
 -9.4538342749455229  3.2710149440645924 -9.1999999999999833
 -3.9465327815340125  1.7937085233508505 -9.1999999999999833
 -12.9432583757398092  1.2667533230835761 -9.1999999999999833
 -7.0680702052823712  1.1609043180463487 -9.1999999999999833
 -1.1928820348249336  1.0550553130091218 -9.1999999999999833
 -8.6007525615517793  0.9492063079718948 -9.1999999999999833
 -10.1896076290307320  0.5281001127418474 -9.1999999999999833
 -4.3144194585865758  0.4222511077046203 -9.1999999999999833
 -11.7222899853001383  0.3164021026673932 -9.1999999999999833
 -11.3544033082475764  1.6878595183136234 -9.1999999999999833
 -2.0459637482385951  3.3768639491321046 -9.1999999999999833
 -7.9211519186827504  3.4827129541693314 -9.1999999999999833
 -6.3322968512037976  3.9038191493993790 -9.1999999999999833
 -9.9390293112999721  6.9642809958640903 -9.1999999999999833
 -4.0638411408491821  6.8584319907965776 -9.1999999999999833
 -5.6526962083347687  6.4373257955968164 -9.1999999999999833
 -13.0605667350549801  6.3314767905293037 -9.1999999999999833
 -7.1853785645975412  6.2256277854920770 -9.1999999999999833
 -14.5932490913111028  6.1197787804548494 -9.1999999999999833
 -2.8990454616323382  5.6986725852248021 -9.1999999999999833
 -10.3069159883459012  5.5928235801875754 -9.1999999999999833
 -4.4317278178884623  5.4869745751503478 -9.1999999999999833
 -11.8395983446086728  5.3811255700828360 -9.1999999999999833
 -13.4284534120942602  4.9600193748830730 -9.1999999999999833
 -7.5532652416434702  4.8541703698155612 -9.1999999999999833
 -1.6780770711860318  4.7483213647783344 -9.1999999999999833
 -9.0859475978995938  4.6424723597411077 -9.1999999999999833
 -10.6748026653918302  4.2213661645110605 -9.1999999999999833
 -4.7996144949343904  4.1155171594738338 -9.1999999999999833
 -12.2074850216479529  4.0096681544366062 -9.1999999999999833
 -8.4063469550438477  7.1759790059385438 -9.1999999999999833
 -7.7878819602605258 14.9836173047070176 -9.1999999999999833
 -13.6630701307179656 15.0894663097442443 -9.1999999999999833
 -6.2551996040110378 15.1953153148117579 -9.1999999999999833
 -9.2434670693371714 26.0634154600449399 -9.1999999999999833
 -10.8323221368294060 25.6423092648148945 -9.1999999999999833
 -18.2401926635429703 25.5364602597776660 -9.1999999999999833
 -12.3650044930855305 25.4306112547404410 -9.1999999999999833
 -6.4898163226347405 25.3247622496729257 -9.1999999999999833
 -8.0786713901203271 24.9036560544731636 -9.1999999999999833
 -15.4865419168405367 24.7978070494056517 -9.1999999999999833
 -15.1186552397946095 26.1692644650821684 -9.1999999999999833
 -9.6113537463830987 24.6919580443684268 -9.1999999999999833
 -5.3250206434178970 24.1650028441011528 -9.1999999999999833
 -12.7328911701314595 24.0591538390639244 -9.1999999999999833
 -6.8577029996740215 23.9533048340266994 -9.1999999999999833
 -14.2655735263942312 23.8474558289591840 -9.1999999999999833
 -15.8544285938798168 23.4263496337594219 -9.1999999999999833
 -9.9792404234290295 23.3205006286919101 -9.1999999999999833
 -17.3871109501425920 23.2146516236546816 -9.1999999999999833
 -17.0192242730966612 24.5861090393311983 -9.1999999999999833
 -7.7107847130810470 26.2751134701193934 -9.1999999999999833
 -13.5859728835252032 26.3809624751566218 -9.1999999999999833
 -11.9971178160462504 26.8020686703866673 -9.1999999999999833
 -15.6038502761424240 29.8625305168513826 -9.1999999999999833
 -9.7286621056982696 29.7566815118141541 -9.1999999999999833
 -11.3175171731772206 29.3355753165841051 -9.1999999999999833
 -18.7253876999040685 29.2297263115468766 -9.1999999999999833
 -12.8501995294466287 29.1238773065096517 -9.1999999999999833
 -6.9750113589891907 29.0180283014724232 -9.1999999999999833
 -8.5638664264814253 28.5969221062423777 -9.1999999999999833
 -15.9717369531949878 28.4910731012051492 -9.1999999999999833
 -10.0965487827309151 28.3852240961376410 -9.1999999999999833
 -17.5044193094577594 28.2793750911004125 -9.1999999999999833
 -19.0932743769367121 27.8582688958703635 -9.1999999999999833
 -13.2180862064925577 27.7524198908331350 -9.1999999999999833
 -7.3428980360351197 27.6465708857959100 -9.1999999999999833
 -14.7507685627486822 27.5407218807586816 -9.1999999999999833
 -16.3396236302409150 27.1196156855286361 -9.1999999999999833
 -10.4644354597834770 27.0137666804914076 -9.1999999999999833
 -17.8723059864904030 26.9079176754238958 -9.1999999999999833
 -11.5119227796851540 23.1088026186174567 -9.1999999999999833
 -13.1007778471773868 22.6876964233874112 -9.1999999999999833
 -7.2255896767199497 22.5818474183501827 -9.1999999999999833
 -14.6334602034335131 22.4759984133129542 -9.1999999999999833
 -9.8619320641204951 18.2557771612764697 -9.1999999999999833
 -3.9867438936564210 18.1499281562089578 -9.1999999999999833
 -11.3946144203699831 18.0440791511717258 -9.1999999999999833
 -5.5194262499125450 17.9382301461345008 -9.1999999999999833
 -7.1082813174047796 17.5171239509044518 -9.1999999999999833
 -14.5161518441183404 17.4112749458672269 -9.1999999999999833
 -8.6409636736741877 17.3054259408299984 -9.1999999999999833
 -16.0488342003811155 17.1995769357624901 -9.1999999999999833
 -4.3546305707089843 16.7784707405627245 -9.1999999999999833
 -11.7625010974159103 16.6726217354952126 -9.1999999999999833
 -5.8873129269584732 16.5667727304579842 -9.1999999999999833
 -13.2951834536720366 16.4609237254207592 -9.1999999999999833
 -14.8840385211642712 16.0398175301907102 -9.1999999999999833
 -9.0088503507068314 15.9339685251534853 -9.1999999999999833
 -16.4167208774336792 15.8281195201162586 -9.1999999999999833
 -10.5415327069762412 15.7222705150790301 -9.1999999999999833
 -12.1303877744684740 15.3011643198489846 -9.1999999999999833
 -8.2730769966216240 18.6768833564762318 -9.1999999999999833
 -18.3576330447243059 29.9683795218886075 -12.8000000000069694
 -14.1482651670856967 18.7827323615437400 -9.1999999999999833
 -12.6155828108162886 18.9944303716181935 -9.1999999999999833
 -8.7582720329760750 22.3701494082757293 -9.1999999999999833
 -10.3471271004683096 21.9490432130456803 -9.1999999999999833
 -17.7549976271818721 21.8431942080084518 -9.1999999999999833
 -11.8798094567310812 21.7373452029409400 -9.1999999999999833
 -6.0046212862736423 21.6314961979037150 -9.1999999999999833
 -7.5934763537658778 21.2103900026736660 -9.1999999999999833
 -15.0013468804794403 21.1045409976364411 -9.1999999999999833
 -9.1261587100220023 20.9986919925992126 -9.1999999999999833
 -16.5340292367355630 20.8928429875619841 -9.1999999999999833
 -4.8398256070567980 20.4717367923319387 -9.1999999999999833
 -12.2476961337703614 20.3658877872947102 -9.1999999999999833
 -6.3725079633195714 20.2600387822271983 -9.1999999999999833
 -13.7803784900331330 20.1541897771899734 -9.1999999999999833
 -15.3692335575253693 19.7330835819599244 -9.1999999999999833
 -9.4940453870679313 19.6272345769226995 -9.1999999999999833
 -16.9019159137814938 19.5213855718854710 -9.1999999999999833
 -11.0267277433240540 19.4155365668482425 -9.1999999999999833
 -6.7403946403588506 18.8885813665809685 -9.1999999999999833
 -12.4824007077516548 30.0742285269561194 -12.8000000000069694
