 B 
 1.0000000000000000
    10.4222959645420001    0.0000000000000000    0.0000000000000000
    -5.2584446653079997   12.2382305956330004    0.0000000000000000
     0.0000000000000000    0.0000000000000000   23.0000000000000000
 B  
 104
Cartesian
  9.1230848415107815  0.1793842184651401  9.3999999999999826
 -2.1213689150912476  5.4690299026028351 12.8000000000069711
  6.8958301430724873  5.2748185970764982 12.8000000000069711
  5.4907332366994819  5.0806072915379232 12.8000000000069711
  4.0856363303212166  4.8863959860115873 12.8000000000069711
  1.4899871251725261  4.5276275490935456 12.8000000000069711
  0.0848902187995195  4.3334162435549706 12.8000000000069711
 -1.3202066875787457  4.1392049380286347 12.8000000000069711
  7.6969923705849901  3.9449936325022978 12.8000000000069711
  5.1013431654467212  3.5862251955842552 12.8000000000069711
  3.6962462590632930  3.3920138900456811 12.8000000000069711
  0.4742802900470209  5.8277983395208768 12.8000000000069711
  2.2911493526850277  3.1978025845193452 12.8000000000069711
  8.7126992057104946  2.6448228420749667 12.8000000000069711
  7.3076022993374883  2.4506115365363916 12.8000000000069711
  5.9025053929592231  2.2564002310100553 12.8000000000069711
  4.4974084865809587  2.0621889254837189 12.8000000000069711
  1.9017592814375268  1.7034204885534385 12.8000000000069711
  0.4966623750592614  1.5092091830271024 12.8000000000069711
  9.5138614332229956  1.3149978775007660 12.8000000000069711
  8.1087645268447321  1.1207865719744294 12.8000000000069711
  5.5131153217013003  0.7620181350441494 12.8000000000069711
  4.1080184153230341  0.5678068295178129 12.8000000000069711
  0.8860524463067625  3.0035912789930084 12.8000000000069711
  2.7029215089447698  0.3735955239914765 12.8000000000069711
  1.8793771964252857  6.0220096450472127 12.8000000000069711
  4.6895710091869791  6.4104322561121236 12.8000000000069711
  1.0558328839109654 11.6704237661151868 12.8000000000069711
 -0.3492640224672998 11.4762124605888509 12.8000000000069711
 -2.9449132276107317 11.1174440236585710 12.8000000000069711
 -4.3500101339889961 10.9232327181322333 12.8000000000069711
  4.6671889241747389 10.7290214126058991 12.8000000000069711
  3.2620920177964745 10.5348101070795614 12.8000000000069711
  0.6664428126530417 10.1760416701492815 12.8000000000069711
 -0.7386540937252226  9.9818303646229456 12.8000000000069711
 -2.1437510001034883  9.7876190590966079 12.8000000000069711
 -3.5488479064764942  9.5934077535580329 12.8000000000069711
  3.2844741028087148  6.2162209505857868 12.8000000000069711
  4.2777988529272388  9.2346393166399920 12.8000000000069711
  1.4676050401707075  8.8462167055873202 12.8000000000069711
  0.0625081337872788  8.6520054000487452 12.8000000000069711
 -2.5331410713509892  8.2932369631307026 12.8000000000069711
  6.4840579868127461  8.0990256576043667 12.8000000000069711
  5.0789610804344809  7.9048143520780298 12.8000000000069711
  3.6738641740614746  7.7106030465394548 12.8000000000069711
  1.0782149689127842  7.3518346096214140 12.8000000000069711
 -0.3268819374654810  7.1576233040950772 12.8000000000069711
 -1.7319788438384873  6.9634119985565022 12.8000000000069711
  7.2852202143252480  6.7692006930301662 12.8000000000069711
  2.8727019465489732  9.0404280111136561 12.8000000000069711
  1.2978246025665048  0.1793842184651401 12.8000000000069711
 -3.9592335422767819 12.0588463771678605  9.3999999999999826
 -2.5526355119534943 11.8646350716415245  9.3999999999999826
  3.4856949892296583  5.2748185970764982  9.3999999999999826
  4.8922930195686272  5.0806072915379232  9.3999999999999826
  6.2988910498919140  4.8863959860115873  9.3999999999999826
 -1.5249826686033310  4.5276275490935456  9.3999999999999826
 -0.1183846382643630  4.3334162435549706  9.3999999999999826
  1.2882133920693470  4.1392049380286347  9.3999999999999826
  2.6948114224030570  3.9449936325022978  9.3999999999999826
  5.2932336684498118  3.5862251955842552  9.3999999999999826
  6.6998316987887803  3.3920138900456811  9.3999999999999826
  8.1064297291224889  3.1978025845193452  9.3999999999999826
  2.0790969588959491  5.4690299026028351  9.3999999999999826
 -0.9092682050858009  3.0035912789930084  9.3999999999999826
  3.0957520712999225  2.4506115365363916  9.3999999999999826
  4.5023501016232093  2.2564002310100553  9.3999999999999826
  5.9089481319569197  2.0621889254837189  9.3999999999999826
  8.5073703780089325  1.7034204885534385  9.3999999999999826
 -0.5083275561993574  1.5092091830271024  9.3999999999999826
  0.8982704741343522  1.3149978775007660  9.3999999999999826
  2.3048685044680615  1.1207865719744294  9.3999999999999826
  4.9032907505200765  0.7620181350441494  9.3999999999999826
  6.3098887808537851  0.5678068295178129  9.3999999999999826
  7.7164868111874947  0.3735955239914765  9.3999999999999826
  1.6891540409609545  2.6448228420749667  9.3999999999999826
 -0.5193252871508063  5.8277983395208768  9.3999999999999826
 -1.9259233174845158  6.0220096450472127  9.3999999999999826
  7.0897746167185156  6.2162209505857868  9.3999999999999826
 -1.1460374816197847 11.6704237661151868  9.3999999999999826
  0.2605605487139249 11.4762124605888509  9.3999999999999826
  2.8589827947659376 11.1174440236585710  9.3999999999999826
  4.2655808250996490 10.9232327181322333  9.3999999999999826
  5.6721788554333576 10.7290214126058991  9.3999999999999826
 -3.3435190787749329 10.5348101070795614  9.3999999999999826
 -0.7450968327229188 10.1760416701492815  9.3999999999999826
  0.6615011976107903  9.9818303646229456  9.3999999999999826
  2.0680992279340780  9.7876190590966079  9.3999999999999826
  3.4746972582730464  9.5934077535580329  9.3999999999999826
  6.0731195043198003  9.2346393166399920  9.3999999999999826
 -2.9425784298884894  9.0404280111136561  9.3999999999999826
 -1.5359803995547794  8.8462167055873202  9.3999999999999826
 -0.1293823692158118  8.6520054000487452  9.3999999999999826
  2.4690398768309434  8.2932369631307026  9.3999999999999826
  3.8756379071646538  8.0990256576043667  9.3999999999999826
  5.2822359374983625  7.9048143520780298  9.3999999999999826
  6.6888339678373319  7.7106030465394548  9.3999999999999826
 -1.1350397506579140  7.3518346096214140  9.3999999999999826
  0.2715582796653737  7.1576233040950772  9.3999999999999826
  1.6781563100043422  6.9634119985565022  9.3999999999999826
  3.0847543403380508  6.7692006930301662  9.3999999999999826
  5.6831765863848069  6.4104322561121236  9.3999999999999826
  2.4609297902892306 11.8646350716415245 12.8000000000069711
  3.8660266966674950 12.0588463771678605 12.8000000000069711
